(set-info :origin "driver benchmark extracted from Microsoft SDV")
(set-logic HORN)
(declare-fun Proc3 (Int Int Int Bool) Bool)
(declare-fun Proc34 (Int Int Int Bool Int) Bool)
(declare-fun Proc13 (Int Int Int Bool Int Int) Bool)
(declare-fun Proc33 (Int Int Int Bool Int Int) Bool)
(declare-fun Proc4 (Int Int Int Bool Int) Bool)
(declare-fun Proc21 (Int Int Int Bool Int Int) Bool)
(declare-fun Proc54 (Int Int Int Bool) Bool)
(declare-fun Proc16 (Int Int Int Bool Int Int Int) Bool)
(declare-fun Proc28 (Int Int Int Bool) Bool)
(declare-fun Proc53 (Int Int Int Bool Int Int Int Int Int) Bool)
(declare-fun Proc11 (Int Int Int Bool Int) Bool)
(declare-fun Proc22 (Int Int Int Bool Int) Bool)
(declare-fun Proc23 (Int Int Int Bool Int Int) Bool)
(declare-fun Proc51 (Int Int Int Bool) Bool)
(declare-fun Proc12 (Int Int Int Bool Int Int) Bool)
(declare-fun Proc25 (Int Int Int Bool Int) Bool)
(declare-fun Proc40 (Int Int Int Bool Int) Bool)
(declare-fun Proc35 (Int Int Int Bool Int Int) Bool)
(declare-fun Proc37 (Int Int Int Bool Int) Bool)
(declare-fun Proc44 (Int Int Int Bool Int) Bool)
(declare-fun Proc32 (Int Int Int Bool) Bool)
(declare-fun Proc46 (Int Int Int Bool Int) Bool)
(declare-fun Proc50 (Int Int Int Bool Int) Bool)
(declare-fun Proc42 (Int Int Int Bool Int) Bool)
(declare-fun Proc49 (Int Int Int Bool Int) Bool)
(declare-fun Proc2 (Int Int Int Bool Int) Bool)
(declare-fun Proc19 (Int Int Int Bool Int Int Int Int Int) Bool)
(declare-fun Proc30 (Int Int Int Bool) Bool)
(declare-fun Proc31 (Int Int Int Bool) Bool)
(declare-fun Proc43 (Int Int Int Bool Int) Bool)
(declare-fun Proc0 (Int Int Int Bool Int Int) Bool)
(declare-fun Proc5 (Int Int Int Bool Int) Bool)
(declare-fun Proc29 (Int Int Int Bool) Bool)
(declare-fun Proc1 (Int Int Int Bool Int Int Int Int) Bool)
(declare-fun Proc9 (Int Int Int Bool Int Int) Bool)
(declare-fun Proc17 (Int Int Int Bool Int Int Int Int) Bool)
(declare-fun Proc20 (Int Int Int Bool Int Int Int) Bool)
(declare-fun Proc52 (Int Int Int Bool Int Int Int Int) Bool)
(declare-fun Proc47 (Int Int Int Bool Int) Bool)
(declare-fun Proc55 (Int Int Int Bool Int Bool Int Int Int) Bool)
(declare-fun Proc8 (Int Int Int Bool Int Int Int) Bool)
(declare-fun Proc18
             (Int Int Int Bool Int Int Int Int Int Int Int Int Int Int)
             Bool)
(declare-fun Proc10 (Int Int Int Bool Int) Bool)
(declare-fun Proc45 (Int Int Int Bool Int) Bool)
(declare-fun Proc26 (Int Int Int Bool Int Int Int) Bool)
(declare-fun Proc41 (Int Int Int Bool Int) Bool)
(declare-fun Proc39 (Int Int Int Bool Int) Bool)
(declare-fun Proc15 (Int Int Int Bool Int Int Int Int Int) Bool)
(declare-fun Proc38 (Int Int Int Bool Int) Bool)
(declare-fun Proc27 (Int Int Int Bool) Bool)
(declare-fun Proc14 (Int Int Int Bool Int Int) Bool)
(declare-fun Proc36 (Int Int Int Bool Int Int Int Bool Int) Bool)
(declare-fun Proc6 (Int Int Int Bool Int Int Int) Bool)
(declare-fun Proc24 (Int Int Int Bool Int Int Int) Bool)
(declare-fun Proc7 (Int Int Int Bool Int) Bool)
(declare-fun Proc48 (Int Int Int Bool Int) Bool)
(assert (forall ((A Int)
         (B Int)
         (C Int)
         (D Int)
         (E Int)
         (F Int)
         (G Int)
         (H Int)
         (I Int)
         (J Int)
         (K Bool))
  (let ((a!1 (not (and (not (= J 0)) (= I (+ 176 J)))))
        (a!2 (not (and (not (= J 0)) (= D (+ 180 J)) (Proc1 H G F K D 0 0 C))))
        (a!4 (not (and (not (= J 0)) (= B (+ 292 J)) (Proc1 H G F K B 0 0 A)))))
  (let ((a!3 (and (= E 0) (or (not (= E 0)) a!2))))
  (let ((a!5 (and (or (= E 1) a!3) (or (not (= E 1)) a!4 a!3))))
  (let ((a!6 (not (or (not K) a!1 (not (Proc0 H G F K I E)) a!5))))
    (=> a!6 (Proc2 H G F K J))))))))
(assert (forall ((A Int)
         (B Int)
         (C Int)
         (D Int)
         (E Int)
         (F Int)
         (G Int)
         (H Int)
         (I Int)
         (J Int)
         (K Bool)
         (L Int)
         (M Int)
         (N Int)
         (O Int)
         (P Int)
         (Q Int)
         (R Int)
         (S Int)
         (T Int))
  (let ((a!1 (not (and (not (= O 0)) (= N (+ 48 O)) (Proc4 T S R K N))))
        (a!2 (not (and (not (= O 0)) (= J (+ 48 O)) (Proc5 T S R K J))))
        (a!3 (not (and (= F (- 1073741811)) (= I F))))
        (a!5 (not (and (not (= D 0)) (Proc7 T S R K C))))
        (a!7 (not (and (not (= Q 0)) (not (= D 0)))))
        (a!10 (not (and (not (= O 0)) (= B (+ 48 O)) (Proc5 T S R K B))))
        (a!11 (not (and (= A (- 1073741810)) (= I A)))))
  (let ((a!4 (and (or (= M 0) (not (= I 0)) (not (= H I)) (not (= G H)))
                  (or (not (= M 0)) a!3 (not (= H I)) (not (= G H))))))
  (let ((a!6 (or (= P 0) (= D 0) a!5 (not (and (= P 0) (= M 1))) a!2 a!4))
        (a!8 (or (not (= P 0))
                 a!7
                 (= D 0)
                 a!5
                 (not (and (= P 0) (= M 1)))
                 a!2
                 a!4)))
  (let ((a!9 (and (or (not (= M L)) a!2 a!4)
                  (or (not (Proc6 T S R K E 40 D)) (and a!6 a!8)))))
  (let ((a!12 (and (or (= O 0) a!9) (or a!10 a!11 (not (= H I)) (not (= G H))))))
  (let ((a!13 (and (or (not (= P 0)) a!1 (= O 0) a!12)
                   (or (not (= P 1)) a!1 (= O 0) a!12))))
  (let ((a!14 (not (or (not K) (not (Proc3 T S R K)) (= Q 0) a!13))))
    (=> a!14 (Proc8 T S R K Q O G)))))))))))
(assert (forall ((A Int) (B Int) (C Int) (D Int) (E Int) (F Int) (G Int) (K Bool))
  (let ((a!1 (not (and (not (= G 0)) (= F (+ 176 G)))))
        (a!2 (not (and (not (= G 0)) (= A (+ 292 G)) (Proc10 E D C K A)))))
  (let ((a!3 (and (= B 2) (or (not (= B 2)) a!2))))
  (let ((a!4 (not (or (not K) a!1 (not (Proc9 E D C K F B)) a!3))))
    (=> a!4 (Proc11 E D C K G)))))))
(assert (forall ((A Int)
         (B Int)
         (C Int)
         (D Int)
         (E Int)
         (F Int)
         (G Int)
         (H Int)
         (K Bool))
  (let ((a!1 (not (and (not (= D 0)) (not (= C 0)))))
        (a!2 (not (and (not (= C 0)) (= B (+ 48 C)) (Proc4 H G F K B))))
        (a!3 (not (and (not (= C 0)) (= A (+ 48 C)) (Proc5 H G F K A)))))
  (let ((a!4 (not (or (not K)
                      (not (Proc3 H G F K))
                      (= E 0)
                      (= D 0)
                      a!1
                      a!2
                      (= C 0)
                      a!3))))
    (=> a!4 (Proc12 H G F K E C))))))
(assert (forall ((A Int)
         (B Int)
         (C Int)
         (D Int)
         (E Int)
         (F Int)
         (G Int)
         (H Int)
         (I Int)
         (J Int)
         (K Bool)
         (L Int)
         (M Int)
         (N Int)
         (O Int)
         (P Int)
         (Q Int)
         (R Int)
         (S Int)
         (T Int)
         (U Int)
         (V Int)
         (W Int)
         (X Int)
         (Y Int)
         (Z Int))
  (let ((a!1 (or (<= 12 Q)
                 (not (and (= P R) (= O Z)))
                 (= T 0)
                 (not (and (= N O) (= M P)))
                 (not (Proc14 N Y X K T 0))
                 (not (Proc2 N Y X K U))
                 (not (and (= L M) (= J N)))
                 (not (and (= I L) (= H J)))))
        (a!2 (or (not (and (= P R) (= O Z)))
                 (= T 0)
                 (not (and (= N O) (= M P)))
                 (not (Proc14 N Y X K T 0))
                 (not (Proc2 N Y X K U))
                 (not (and (= L M) (= J N)))
                 (not (and (= I L) (= H J)))))
        (a!3 (or (not (Proc15 Z Y X K G Q U F E))
                 (not (and (= P F) (= O E)))
                 (= T 0)
                 (not (and (= N O) (= M P)))
                 (not (Proc14 N Y X K T 0))
                 (not (Proc2 N Y X K U))
                 (not (and (= L M) (= J N)))
                 (not (and (= I L) (= H J)))))
        (a!4 (or (= 16 Q)
                 (not (and (= P R) (= O Z)))
                 (= T 0)
                 (not (and (= N O) (= M P)))
                 (not (Proc14 N Y X K T 0))
                 (not (Proc2 N Y X K U))
                 (not (and (= L M) (= J N)))
                 (not (and (= I L) (= H J)))))
        (a!5 (or (not (Proc16 Z Y X K G U D))
                 (not (and (= P D) (= O Z)))
                 (= T 0)
                 (not (and (= N O) (= M P)))
                 (not (Proc14 N Y X K T 0))
                 (not (Proc2 N Y X K U))
                 (not (and (= L M) (= J N)))
                 (not (and (= I L) (= H J)))))
        (a!6 (or (not (Proc8 Z Y X K G U C))
                 (not (and (= P C) (= O Z)))
                 (= T 0)
                 (not (and (= N O) (= M P)))
                 (not (Proc14 N Y X K T 0))
                 (not (Proc2 N Y X K U))
                 (not (and (= L M) (= J N)))
                 (not (and (= I L) (= H J)))))
        (a!11 (or (not (= B (- 1073741810)))
                  (not (and (= N Z) (= M B)))
                  (= T 0)
                  (not (Proc14 N Y X K T 0))
                  (not (Proc2 N Y X K U))
                  (not (and (= L M) (= J N)))
                  (not (and (= I L) (= H J)))))
        (a!12 (or (not (= A (- 1073741808)))
                  (= T 0)
                  (not (Proc14 Z Y X K T 0))
                  (not (and (= L A) (= J Z)))
                  (not (and (= I L) (= H J))))))
  (let ((a!7 (and (or (not (= 16 Q)) (= G 0) (and a!6 a!2)) a!4 a!2)))
  (let ((a!8 (and a!4
                  (or (not (= 16 Q)) (= G 0) (and a!2 a!5))
                  (or (= S 0) a!7))))
  (let ((a!9 (and a!1
                  (or (not (<= 12 Q)) (= G 0) (and a!2 a!3))
                  (or (= S 0) a!8))))
  (let ((a!10 (or (not (Proc13 Z Y X K T S))
                  (= T 0)
                  (= S 0)
                  (not (= R (- 1073741811)))
                  a!9)))
  (let ((a!13 (and (or (= W 0) (not (Proc11 Z Y X K U)) (= U 0) (and a!10 a!11))
                   a!12)))
  (let ((a!14 (not (or (not K) (not (Proc3 Z Y X K)) (= W 0) (= V 0) a!13))))
    (=> a!14 (Proc17 Z Y X K W T I H)))))))))))
(assert (forall ((A Int)
         (B Int)
         (C Int)
         (D Int)
         (E Int)
         (F Int)
         (G Int)
         (H Int)
         (I Int)
         (J Int)
         (K Bool)
         (L Int)
         (M Int)
         (N Int)
         (O Int)
         (P Int)
         (Q Int)
         (R Int)
         (S Int)
         (T Int)
         (U Int)
         (V Int)
         (W Int)
         (X Int)
         (Y Int)
         (Z Int)
         (A1 Int)
         (B1 Int)
         (C1 Int)
         (D1 Int)
         (E1 Int)
         (F1 Int)
         (G1 Int)
         (H1 Int)
         (I1 Int)
         (J1 Int)
         (K1 Int)
         (L1 Int)
         (M1 Int)
         (N1 Int)
         (O1 Int)
         (P1 Int)
         (Q1 Int)
         (R1 Int)
         (S1 Int))
  (let ((a!1 (and (not (<= Q1 (+ 4 S1))) (not (<= Q1 R1))))
        (a!2 (and (not (<= O1 (+ 1 P1))) (not (<= O1 Q1))))
        (a!3 (and (not (<= M1 (+ 1 N1))) (not (<= M1 O1))))
        (a!4 (or (not (= H1 (- 1073741811)))
                 (not (and (= G1 H1) (= F1 M1)))
                 (not (and (= E1 G1) (= D1 F1)))
                 (not (and (= C1 E1) (= B1 D1)))))
        (a!5 (not (and (not (= Z 0)) (= Y (+ 48 Z)) (Proc4 M1 L1 K1 K Y))))
        (a!6 (not (and (not (= Z 0)) (= W (+ 48 Z)) (Proc5 M1 L1 K1 K W))))
        (a!7 (not (and (not (= T 0))
                       (Proc18 M1 L1 K1 K S 56 0 42 384 0 R Q S1 P))))
        (a!8 (or (<= 0 P)
                 (not (and (= G1 P) (= F1 M1)))
                 (not (and (= E1 G1) (= D1 F1)))
                 (not (and (= C1 E1) (= B1 D1)))))
        (a!9 (not (and (= O (- 210419116)) (Proc19 M1 L1 K1 K 0 V O N M))))
        (a!10 (not (and (not (= J1 0)) (not (= L 0)) (Proc20 M L1 K1 K J I V))))
        (a!11 (not (and (not (= L 0)) (not (= J1 0)))))
        (a!12 (not (and (not (= Z 0)) (Proc21 M L1 K1 K G 0))))
        (a!14 (or (not (Proc22 M L1 K1 K F))
                  (not (= E (- 1073741670)))
                  (not (and (= G1 E) (= F1 M)))
                  (not (and (= E1 G1) (= D1 F1)))
                  (not (and (= C1 E1) (= B1 D1)))))
        (a!17 (or (not (= X 0))
                  (not (= D (- 1073741811)))
                  (not (and (= G1 D) (= F1 M1)))
                  (not (and (= E1 G1) (= D1 F1)))
                  (not (and (= C1 E1) (= B1 D1)))))
        (a!18 (not (and (not (= J1 0)) (not (= B 0))))))
  (let ((a!13 (or (= L 0)
                  a!10
                  a!11
                  (not (Proc12 M L1 K1 K H Z))
                  (= Z 0)
                  a!12
                  (not (and (= G1 P) (= F1 M)))
                  (not (and (= E1 G1) (= D1 F1)))
                  (not (and (= C1 E1) (= B1 D1))))))
  (let ((a!15 (and a!8 (or (not (<= 0 P)) a!9 (= L 0) (and a!13 a!14)))))
  (let ((a!16 (or (= X 0) (not (= V (* 2 U))) (= Z 0) (= T 0) a!7 a!15)))
  (let ((a!19 (and (or (not (= X 1)) a!6 (and a!16 a!17))
                   (or (not (Proc6 M1 L1 K1 K C 40 B))
                       a!18
                       (= B 0)
                       (not (= X 0))
                       a!6
                       (and a!16 a!17)))))
  (let ((a!20 (or (= J1 0) (= A1 0) (and a!4 (or a!5 (= Z 0) a!19)))))
  (let ((a!21 (not (or (not K)
                       (not (= S1 R1))
                       (not a!1)
                       (not (= P1 Q1))
                       (not a!2)
                       (not (= N1 O1))
                       (not a!3)
                       (not (Proc3 M1 L1 K1 K))
                       (= J1 0)
                       (= I1 0)
                       (and a!4 a!20)))))
    (=> a!21 (Proc15 R1 L1 K1 K J1 A Z C1 B1)))))))))))
(assert (forall ((A Int)
         (B Int)
         (C Int)
         (D Int)
         (E Int)
         (F Int)
         (G Int)
         (H Int)
         (I Int)
         (J Int)
         (K Bool)
         (L Int)
         (M Int)
         (N Int)
         (O Int)
         (P Int)
         (Q Int)
         (R Int)
         (S Int)
         (T Int))
  (let ((a!1 (not (and (not (= O 0)) (= N (+ 48 O)) (Proc4 T S R K N))))
        (a!2 (not (and (not (= O 0)) (= J (+ 48 O)) (Proc5 T S R K J))))
        (a!3 (not (and (not (= O 0)) (Proc21 T S R K I 0))))
        (a!4 (not (and (= E (- 1073741811)) (= H E))))
        (a!7 (not (and (not (= Q 0)) (not (= C 0)))))
        (a!10 (not (and (not (= O 0)) (= B (+ 48 O)) (Proc5 T S R K B))))
        (a!11 (not (and (= A (- 1073741810)) (= H A)))))
  (let ((a!5 (and (or (= M 0)
                      (= O 0)
                      a!3
                      (not (= H 0))
                      (not (= G H))
                      (not (= F G)))
                  (or (not (= M 0)) a!4 (not (= G H)) (not (= F G))))))
  (let ((a!6 (or (= P 0) (= C 0) (not (and (= P 0) (= M 1))) a!2 a!5))
        (a!8 (or (not (= P 0)) a!7 (= C 0) (not (and (= P 0) (= M 1))) a!2 a!5)))
  (let ((a!9 (and (or (not (= M L)) a!2 a!5)
                  (or (not (Proc6 T S R K D 40 C)) (and a!6 a!8)))))
  (let ((a!12 (and (or (= O 0) a!9) (or a!10 a!11 (not (= G H)) (not (= F G))))))
  (let ((a!13 (and (or (not (= P 0)) a!1 (= O 0) a!12)
                   (or (not (= P 1)) a!1 (= O 0) a!12))))
  (let ((a!14 (not (or (not K) (not (Proc3 T S R K)) (= Q 0) a!13))))
    (=> a!14 (Proc16 T S R K Q O F)))))))))))
(assert (forall ((A Int) (B Int) (C Int) (D Int) (K Bool)) (=> K (Proc4 D C B K A))))
(assert (forall ((A Int)
         (B Int)
         (C Int)
         (D Int)
         (E Int)
         (F Int)
         (G Int)
         (H Int)
         (I Int)
         (J Int)
         (K Bool)
         (L Int)
         (M Int))
  (let ((a!1 (or (not (and (= M L) (= J 0))) (not (and (= I J) (= H M)))))
        (a!2 (and (not (<= F (+ 1 G))) (not (<= F L)))))
  (let ((a!3 (or (not (= G L))
                 (not a!2)
                 (not (and (= M F) (= J G)))
                 (not (and (= I J) (= H M))))))
    (=> (not (or (not K) (and a!1 a!3))) (Proc19 L E D K C B A I H))))))
(assert (forall ((A Int) (B Int) (C Int) (D Int) (K Bool)) (=> K (Proc5 D C B K A))))
(assert (forall ((A Int) (B Int) (C Int) (D Int) (K Bool)) (=> K (Proc22 D C B K A))))
(assert (forall ((A Int) (B Int) (C Int) (D Int) (E Int) (K Bool))
  (=> K (Proc21 E D C K B A))))
(assert (forall ((A Int) (B Int) (C Int) (D Int) (K Bool)) (=> K (Proc7 D C B K A))))
(assert (forall ((A Int) (B Int) (C Int) (D Int) (K Bool)) (=> K (Proc10 D C B K A))))
(assert (forall ((A Int)
         (B Int)
         (C Int)
         (D Int)
         (E Int)
         (F Int)
         (G Int)
         (H Int)
         (K Bool))
  (let ((a!1 (not (or (not K) (not (= H G))))))
    (=> a!1 (Proc1 F E D K C B A H)))))
(assert (forall ((A Int)
         (B Int)
         (C Int)
         (D Int)
         (E Int)
         (F Int)
         (G Int)
         (H Int)
         (I Int)
         (K Bool))
  (let ((a!1 (and (not (<= G (+ 1 I))) (not (<= G H)))))
  (let ((a!2 (or (not K)
                 (not (= I H))
                 (not a!1)
                 (not (Proc23 G F E K I D))
                 (not (and (= C G) (= B D))))))
    (=> (not a!2) (Proc24 H F E K A C B))))))
(assert (forall ((A Int) (B Int) (C Int) (D Int) (E Int) (K Bool))
  (let ((a!1 (not (or (not K) (not (= E 1))))))
    (=> a!1 (Proc23 D C B K A E)))))
(assert (forall ((A Int) (B Int) (C Int) (D Int) (K Bool))
  (=> false (Proc25 D C B K A))))
(assert (forall ((A Int)
         (B Int)
         (C Int)
         (D Int)
         (E Int)
         (F Int)
         (G Int)
         (H Int)
         (I Int)
         (J Int)
         (K Bool)
         (L Int)
         (M Int))
  (let ((a!1 (or (not (= G 1))
                 (not (and (= F H) (= E G)))
                 (not (and (= D F) (= C E)))))
        (a!2 (or (= G 1)
                 (not (and (= F H) (= E G)))
                 (not (and (= D F) (= C E)))))
        (a!3 (and (not (<= A (+ 1 B))) (not (<= A L)))))
  (let ((a!4 (or (not (= M 0))
                 (not (= B L))
                 (not a!3)
                 (not (Proc25 A M J K B))
                 (not (and (= F A) (= E J)))
                 (not (and (= D F) (= C E))))))
  (let ((a!5 (and (or (= M 0) (not (Proc24 L M J K I H G)) (and a!1 a!2)) a!4)))
    (=> (not (or (not K) a!5)) (Proc26 L M J K I D C)))))))
(assert (forall ((A Int) (B Int) (C Int) (K Bool)) (=> K (Proc27 C B A K))))
(assert (forall ((A Int) (B Int) (C Int) (K Bool)) (=> K (Proc28 C B A K))))
(assert (forall ((A Int) (B Int) (C Int) (K Bool)) (=> K (Proc29 C B A K))))
(assert (forall ((A Int) (B Int) (C Int) (K Bool)) (=> K (Proc30 C B A K))))
(assert (forall ((A Int) (B Int) (C Int) (K Bool)) (=> K (Proc31 C B A K))))
(assert (forall ((A Int) (B Int) (C Int) (K Bool)) (=> K (Proc32 C B A K))))
(assert (forall ((A Int) (B Int) (C Int) (D Int) (E Int) (K Bool))
  (let ((a!1 (or (not K) (not (and (= E 0) (= D 0))))))
    (=> (not a!1) (Proc33 C B A K E D)))))
(assert (forall ((A Int)
         (B Int)
         (C Int)
         (D Int)
         (E Int)
         (F Int)
         (G Int)
         (H Int)
         (I Int)
         (J Int)
         (K Bool)
         (L Int)
         (M Int)
         (N Int)
         (O Int)
         (P Int)
         (T1 Bool)
         (U1 Bool)
         (V1 Bool))
  (let ((a!1 (not (and (not (<= P 0)) (Proc34 P O N V1 M))))
        (a!2 (not (and (= E G) (= D L) (= C H) (= T1 U1) (= B I)))))
  (let ((a!3 (or (= H 0) (not (and (= G F) (not U1))) a!2))
        (a!4 (or (not (and (= H 0) (= K V1))) (not (and (= G A) (= U1 K))) a!2)))
  (let ((a!5 (and (or (= H 1) (and a!3 a!4)) (or (not (= H 1)) (and a!3 a!4)))))
  (let ((a!6 (not (or (not V1)
                      a!1
                      (not (Proc33 M O N V1 L J))
                      (not (Proc32 M L J V1))
                      (not (Proc31 M L J V1))
                      (not (Proc30 M L J V1))
                      (not (Proc29 M L J V1))
                      (not (Proc28 M L J V1))
                      (not (Proc27 M L J V1))
                      (not (Proc35 M L J V1 I H))
                      a!5))))
    (=> a!6 (Proc36 P O N V1 E D C T1 B))))))))
(assert (forall ((A Int) (B Int) (C Int) (D Int) (K Bool))
  (let ((a!1 (not (or (not K) (not (= D 1))))))
    (=> a!1 (Proc37 C B A K D)))))
(assert (forall ((A Int) (B Int) (C Int) (D Int) (K Bool))
  (let ((a!1 (not (or (not K) (not (= D 0))))))
    (=> a!1 (Proc38 C B A K D)))))
(assert (forall ((A Int) (B Int) (C Int) (D Int) (K Bool))
  (let ((a!1 (not (or (not K) (not (= D 1))))))
    (=> a!1 (Proc39 C B A K D)))))
(assert (forall ((A Int) (B Int) (C Int) (D Int) (K Bool))
  (let ((a!1 (not (or (not K) (not (= D 0))))))
    (=> a!1 (Proc40 C B A K D)))))
(assert (forall ((A Int) (B Int) (C Int) (D Int) (K Bool))
  (let ((a!1 (not (or (not K) (not (= D 1))))))
    (=> a!1 (Proc41 C B A K D)))))
(assert (forall ((A Int) (B Int) (C Int) (D Int) (K Bool))
  (let ((a!1 (not (or (not K) (not (= D 0))))))
    (=> a!1 (Proc42 C B A K D)))))
(assert (forall ((A Int) (B Int) (C Int) (D Int) (K Bool))
  (let ((a!1 (not (or (not K) (not (= D 1))))))
    (=> a!1 (Proc43 C B A K D)))))
(assert (forall ((A Int) (B Int) (C Int) (D Int) (K Bool))
  (let ((a!1 (not (or (not K) (not (= D 1))))))
    (=> a!1 (Proc44 C B A K D)))))
(assert (forall ((A Int) (B Int) (C Int) (D Int) (K Bool))
  (let ((a!1 (not (or (not K) (not (= D 0))))))
    (=> a!1 (Proc45 C B A K D)))))
(assert (forall ((A Int) (B Int) (C Int) (D Int) (K Bool))
  (let ((a!1 (not (or (not K) (not (= D 0))))))
    (=> a!1 (Proc46 C B A K D)))))
(assert (forall ((A Int) (B Int) (C Int) (D Int) (K Bool))
  (let ((a!1 (not (or (not K) (not (= D 0))))))
    (=> a!1 (Proc47 C B A K D)))))
(assert (forall ((A Int) (B Int) (C Int) (D Int) (E Int) (K Bool))
  (let ((a!1 (or (not K) (not (= E (- 1073741823))) (not (= D E)))))
    (=> (not a!1) (Proc48 C B A K D)))))
(assert (forall ((A Int) (B Int) (C Int) (D Int) (E Int) (F Int) (K Bool))
  (let ((a!1 (not (or (not K) (= F 0) (not (= E D))))))
    (=> a!1 (Proc0 C B A K F E)))))
(assert (forall ((A Int) (B Int) (C Int) (D Int) (E Int) (F Int) (K Bool))
  (let ((a!1 (not (or (not K) (= F 0) (not (= E D))))))
    (=> a!1 (Proc9 C B A K F E)))))
(assert (forall ((A Int) (B Int) (C Int) (D Int) (E Int) (K Bool))
  (=> K (Proc14 E D C K B A))))
(assert (forall ((A Int) (B Int) (C Int) (D Int) (K Bool))
  (let ((a!1 (not (or (not K) (not (= D 1))))))
    (=> a!1 (Proc49 C B A K D)))))
(assert (forall ((A Int)
         (B Int)
         (C Int)
         (D Int)
         (E Int)
         (F Int)
         (G Int)
         (H Int)
         (I Int)
         (J Int)
         (K Bool)
         (L Int)
         (M Int)
         (N Int)
         (O Int)
         (P Int)
         (Q Int)
         (R Int)
         (S Int))
  (let ((a!1 (not (and (= P (- 1073741823)) (= R P))))
        (a!2 (not (and (= O (- 1073741670)) (= R O))))
        (a!3 (not (and (= N (- 1073741771)) (= R N))))
        (a!4 (not (and (= M (- 1073741824)) (= R M)))))
  (let ((a!5 (and (or (= S 0) (not (= R 0)) (not (= Q R)))
                  (or (= S 0) a!1 (not (= Q R)))
                  (or (= S 0) a!2 (not (= Q R)))
                  (or (= S 0) a!3 (not (= Q R)))
                  (or (= S 0) a!4 (not (= Q R))))))
    (=> (not (or (not K) a!5)) (Proc18 L J I K H G F E D C B A S Q))))))
(assert (forall ((A Int) (B Int) (C Int) (D Int) (E Int) (F Int) (K Bool))
  (let ((a!1 (not (or (not K) (= F 0) (not (= E D))))))
    (=> a!1 (Proc13 C B A K F E)))))
(assert (forall ((A Int) (B Int) (C Int) (D Int) (E Int) (F Int) (K Bool))
  (=> K (Proc20 F E D K C B A))))
(assert (forall ((A Int)
         (B Int)
         (C Int)
         (D Int)
         (E Int)
         (F Int)
         (G Int)
         (H Int)
         (I Int)
         (J Int)
         (K Bool)
         (L Int)
         (M Int)
         (N Int)
         (O Int)
         (P Int)
         (Q Int)
         (R Int)
         (S Int)
         (T Int)
         (U Int)
         (V Int))
  (let ((a!1 (not (Proc52 O T S K P V N M)))
        (a!2 (not (and (= I L) (= H N) (= G M)))))
  (let ((a!3 (or (not (and (= M 1) (= L J))) a!2)))
  (let ((a!4 (and a!3 (or (= M 1) (= V 0) (not (= L P)) a!2))))
  (let ((a!5 (or (= R 0)
                 (not (Proc48 U T S K Q))
                 (not (and (= P Q) (= O U)))
                 a!1
                 a!4))
        (a!6 (or (= R 0)
                 (not (Proc48 U T S K F))
                 (not (and (= P F) (= O U)))
                 a!1
                 a!4))
        (a!7 (or (= R 0)
                 (not (Proc17 U T S K E V D C))
                 (not (and (= P D) (= O C)))
                 a!1
                 a!4))
        (a!8 (or (not (Proc48 U T S K B)) (not (and (= P B) (= O U))) a!1 a!4))
        (a!9 (or (not (Proc48 U T S K A)) (not (and (= P A) (= O U))) a!1 a!4)))
  (let ((a!10 (not (or (not K)
                       (= V 0)
                       (not (Proc50 U T S K V))
                       (= R 0)
                       (not (Proc51 U T S K))
                       (and a!5 a!6 a!7 a!8 a!9)))))
    (=> a!10 (Proc53 U T S K E V I H G)))))))))
(assert (forall ((A Int) (B Int) (C Int) (D Int) (K Bool))
  (=> (not (or (not K) (= D 0))) (Proc50 C B A K D))))
(assert (forall ((A Int) (B Int) (C Int) (D Int) (E Int) (F Int) (K Bool))
  (let ((a!1 (not (or (not K) (not (= F E))))))
    (=> a!1 (Proc6 D C B K E A F)))))
(assert (forall ((A Int) (B Int) (C Int) (K Bool)) (=> K (Proc3 C B A K))))
(assert (forall ((A Int)
         (B Int)
         (C Int)
         (D Int)
         (E Int)
         (F Int)
         (G Int)
         (H Int)
         (I Int)
         (J Int)
         (K Bool)
         (L Int)
         (M Int)
         (N Int)
         (O Int)
         (P Int)
         (Q Int)
         (R Int)
         (S Int)
         (T Int)
         (U Int)
         (V Int)
         (W Int)
         (X Int)
         (Y Int))
  (let ((a!1 (or (not (and (= I Y) (= H W))) (not (and (= G I) (= F H)))))
        (a!2 (or (not (= A 1))
                 (not (and (= I B) (= H A)))
                 (not (and (= G I) (= F H)))))
        (a!3 (or (= A 1)
                 (not (and (= I B) (= H A)))
                 (not (and (= G I) (= F H)))))
        (a!4 (or (not (= V 0))
                 (not (and (= I Y) (= H W)))
                 (not (and (= G I) (= F H))))))
  (let ((a!5 (and a!1
                  (or (= V 0)
                      (not (Proc54 Y X W K))
                      (not (Proc53 Y X W K E D C B A))
                      (and a!2 a!3))
                  a!4)))
  (let ((a!6 (not (or (not K)
                      (not (Proc39 Y X W K V))
                      (not (Proc46 Y X W K U))
                      (not (Proc40 Y X W K T))
                      (not (Proc45 Y X W K S))
                      (not (Proc38 Y X W K R))
                      (not (Proc42 Y X W K Q))
                      (not (Proc49 Y X W K P))
                      (not (Proc47 Y X W K O))
                      (not (Proc37 Y X W K N))
                      (not (Proc43 Y X W K M))
                      (not (Proc44 Y X W K L))
                      (not (Proc41 Y X W K J))
                      a!5))))
    (=> a!6 (Proc35 Y X W K G F)))))))
(assert (forall ((A Int) (B Int) (C Int) (K Bool)) (=> K (Proc51 C B A K))))
(assert (forall ((A Int)
         (B Int)
         (C Int)
         (D Int)
         (E Int)
         (F Int)
         (G Int)
         (H Int)
         (I Int)
         (J Int)
         (K Bool)
         (L Int))
  (let ((a!1 (and (not (<= I (+ 1 L))) (not (<= I J))))
        (a!2 (or (not (= E 1)) (not (and (= D F) (= C E)))))
        (a!3 (or (= E 1) (not (and (= D F) (= C E))))))
  (let ((a!4 (not (or (not K)
                      (not (= L J))
                      (not a!1)
                      (not (Proc26 I H G K L F E))
                      (and a!2 a!3)))))
    (=> a!4 (Proc52 J H G K B A D C))))))
(assert (forall ((A Int) (B Int) (C Int) (K Bool)) (=> K (Proc54 C B A K))))
(assert (forall ((A Int)
         (B Int)
         (C Int)
         (D Int)
         (E Int)
         (F Int)
         (G Int)
         (H Int)
         (I Int)
         (J Int)
         (K Bool)
         (L Int)
         (M Int)
         (N Int)
         (O Int)
         (P Int)
         (Q Int)
         (R Int)
         (S Int)
         (T Int)
         (U Int)
         (V Int)
         (W Int)
         (X Int)
         (Y Int)
         (Z Int)
         (A1 Int)
         (B1 Int)
         (C1 Int)
         (D1 Int)
         (E1 Int)
         (F1 Int)
         (G1 Int)
         (H1 Int)
         (I1 Int)
         (J1 Int)
         (K1 Int)
         (L1 Int)
         (M1 Int)
         (N1 Int)
         (O1 Int)
         (P1 Int)
         (Q1 Int)
         (R1 Int)
         (S1 Int)
         (W1 Int)
         (X1 Int)
         (Y1 Int)
         (Z1 Int)
         (A2 Int)
         (B2 Int)
         (C2 Int)
         (D2 Int)
         (E2 Int)
         (F2 Int)
         (G2 Int)
         (H2 Int)
         (I2 Int)
         (J2 Int)
         (K2 Int)
         (L2 Int)
         (M2 Int)
         (N2 Int)
         (O2 Int)
         (P2 Int)
         (Q2 Int)
         (R2 Int)
         (S2 Int)
         (T2 Int))
  (let ((a!1 (and (= T2 S2)
                  (not (<= R2 (+ 16 T2)))
                  (not (<= R2 S2))
                  (= Q2 R2)
                  (not (<= P2 (+ 16 Q2)))
                  (not (<= P2 R2))
                  (= O2 P2)
                  (not (<= N2 (+ 16 O2)))
                  (not (<= N2 P2))
                  (= M2 N2)
                  (not (<= L2 (+ 16 M2)))
                  (not (<= L2 N2))
                  (= K2 L2)
                  (not (<= J2 (+ 16 K2)))
                  (not (<= J2 L2))
                  (= I2 J2)
                  (not (<= H2 (+ 12 I2)))
                  (not (<= H2 J2))
                  (= G2 H2)
                  (not (<= F2 (+ 16 G2)))
                  (not (<= F2 H2))
                  (= E2 F2)
                  (not (<= D2 (+ 16 E2)))
                  (not (<= D2 F2))
                  (= C2 D2)
                  (not (<= B2 (+ 16 C2)))
                  (not (<= B2 D2))
                  (= A2 B2)
                  (not (<= Z1 (+ 4 A2)))
                  (not (<= Z1 B2))
                  (= Y1 Z1)
                  (not (<= X1 (+ 332 Y1)))))
        (a!2 (and (not (<= X1 Z1))
                  (= W1 X1)
                  (not (<= S1 (+ 4 W1)))
                  (not (<= S1 X1))
                  (= R1 S1)
                  (not (<= Q1 (+ 536 R1)))
                  (not (<= Q1 S1))
                  (= P1 Q1)
                  (not (<= O1 (+ 240 P1)))
                  (not (<= O1 Q1))
                  (= N1 O1)
                  (not (<= M1 (+ 240 N1)))
                  (not (<= M1 O1))
                  (= L1 M1)
                  (not (<= K1 (+ 240 L1)))
                  (not (<= K1 M1))
                  (= J1 K1)
                  (not (<= I1 (+ 4 J1)))
                  (not (<= I1 K1))
                  (= H1 I1)
                  (not (<= G1 (+ 536 H1)))
                  (not (<= G1 I1))
                  (= F1 G1)
                  (not (<= E1 (+ 332 F1)))
                  (not (<= E1 G1))
                  (= D1 E1)
                  (not (<= C1 (+ 240 D1)))
                  (not (<= C1 E1))
                  (= B1 C1)
                  (not (<= A1 (+ 240 B1)))
                  (not (<= A1 C1))
                  (= Z A1)
                  (not (<= Y (+ 332 Z)))
                  (not (<= Y A1))
                  (= X Y)
                  (not (<= W (+ 4 X)))
                  (not (<= W Y))
                  (= V W)
                  (not (<= U (+ 240 V)))
                  (not (<= U W))
                  (= T U)
                  (not (<= S (+ 240 T)))
                  (not (<= S U))
                  (= R S)
                  (not (<= Q (+ 240 R)))
                  (not (<= Q S))
                  (= P Q)
                  (not (<= O (+ 240 P)))
                  (not (<= O Q))
                  (= N O)
                  (not (<= M (+ 240 N)))
                  (not (<= M O))
                  (= L M)
                  (not (<= J (+ 40 L)))
                  (not (<= J M))
                  (= I J)
                  (not (<= H (+ 332 I)))
                  (not (<= H J))
                  (= G H)
                  (not (<= F (+ 4 G)))
                  (not (<= F H))
                  (= E F)
                  (not (<= D (+ 40 E)))
                  (not (<= D F)))))
  (let ((a!3 (not (or (not K) (not a!1) (not a!2) (not (= C D))))))
    (=> a!3 (Proc34 S2 B A K C))))))
(assert (forall ((A Int)
         (B Int)
         (C Int)
         (D Int)
         (E Int)
         (F Int)
         (G Int)
         (H Int)
         (I Int)
         (J Int)
         (K Bool)
         (L Int)
         (T1 Bool)
         (U1 Bool))
  (let ((a!1 (or (not U1) (not (and (Proc36 L J I true H G F T1 E) (not T1))))))
    (=> (not a!1) (Proc55 L J I U1 D K C B A)))))
(assert (let ((a!1 (exists ((V0 Int)
                    (V1 Int)
                    (V2 Int)
                    (V3 Bool)
                    (V4 Int)
                    (V5 Bool)
                    (V6 Int)
                    (V7 Int)
                    (V8 Int))
             (not (=> (and (Proc55 V0 V1 V2 V3 V4 V5 V6 V7 V8) (not false))
                      false)))))
  (not a!1)))

(check-sat)
